Operations Research(Coursera)/Facility  allocation/facility_location.lp
\ Model facility_location
\ LP format - for model browsing. Use MPS format to capture full model detail.
Minimize
  40000 x1 + 30000 x2 + 25000 x3 + 40000 x4 + 30000 x5 + 2.4 y1_1
   + 3.25 y1_2 + 4.05 y1_3 + 5.25 y1_4 + 6.95 y1_5 + 3.5 y2_1 + 2.3 y2_2
   + 3.25 y2_3 + 6.05 y2_4 + 5.85 y2_5 + 4.8 y3_1 + 3.4 y3_2 + 2.85 y3_3
   + 4.3 y3_4 + 4.8 y3_5 + 6.8 y4_1 + 5.25 y4_2 + 4.3 y4_3 + 3.25 y4_4
   + 2.1 y4_5 + 5.75 y5_1 + 6 y5_2 + 4.75 y5_3 + 2.75 y5_4 + 3.5 y5_5
Subject To
 R0: y1_1 + y1_2 + y1_3 + y1_4 + y1_5 >= 8000
 R1: y2_1 + y2_2 + y2_3 + y2_4 + y2_5 >= 12000
 R2: y3_1 + y3_2 + y3_3 + y3_4 + y3_5 >= 9000
 R3: y4_1 + y4_2 + y4_3 + y4_4 + y4_5 >= 14000
 R4: y5_1 + y5_2 + y5_3 + y5_4 + y5_5 >= 17000
 R5: - 20000 x1 + y1_1 + y2_1 + y3_1 + y4_1 + y5_1 <= 0
 R6: - 20000 x2 + y1_2 + y2_2 + y3_2 + y4_2 + y5_2 <= 0
 R7: - 15000 x3 + y1_3 + y2_3 + y3_3 + y4_3 + y5_3 <= 0
 R8: - 25000 x4 + y1_4 + y2_4 + y3_4 + y4_4 + y5_4 <= 0
 R9: - 15000 x5 + y1_5 + y2_5 + y3_5 + y4_5 + y5_5 <= 0
Bounds
Binaries
 x1 x2 x3 x4 x5
End
