Operations Research(Coursera)/Facility  allocation/facility_location.sol
# Solution for model facility_location
# Objective value = 268950
x1 0
x2 1
x3 0
x4 1
x5 1
y1_1 0
y1_2 8000
y1_3 0
y1_4 0
y1_5 0
y2_1 0
y2_2 12000
y2_3 0
y2_4 0
y2_5 0
y3_1 0
y3_2 0
y3_3 0
y3_4 8000
y3_5 1000
y4_1 0
y4_2 0
y4_3 0
y4_4 0
y4_5 14000
y5_1 0
y5_2 0
y5_3 0
y5_4 17000
y5_5 0
